words_hard_train/7427.qaiger
aag 105 18 0 1 87
2
4
12
14
18
22
26
30
34
42
56
64
86
106
116
134
136
166
210
6 2 5
8 3 4
10 7 9
16 13 15
20 16 19
24 20 23
28 24 27
32 29 31
36 33 35
38 32 34
40 37 39
44 42 3
46 43 2
48 45 47
50 40 49
52 28 35
54 53 31
58 55 56
60 54 57
62 59 61
66 64 2
68 65 3
70 67 69
72 63 70
74 51 73
76 41 48
78 25 31
80 79 27
82 78 26
84 81 83
88 86 3
90 87 2
92 89 91
94 85 92
96 77 95
98 17 31
100 99 19
102 98 18
104 101 103
108 106 3
110 107 2
112 109 111
114 105 112
118 117 3
120 116 2
122 119 121
124 12 31
126 125 15
128 124 14
130 127 129
132 122 130
138 134 136
140 135 137
142 139 141
144 142 12
146 133 145
148 123 131
150 147 149
152 104 113
154 151 153
156 115 155
158 21 31
160 159 23
162 158 22
164 161 163
168 166 3
170 167 2
172 169 171
174 165 172
176 156 175
178 164 173
180 177 179
182 84 93
184 180 183
186 96 185
188 74 187
190 62 71
192 189 191
194 10 192
196 52 57
198 194 196
200 198 30
202 11 193
204 202 31
206 195 197
208 205 207
210 201 208
i0 2 y2[7]
i1 1 x1[0]
i2 1 x2[0]
i3 1 x2[1]
i4 1 x2[2]
i5 1 x2[3]
i6 1 x2[4]
i7 1 x2[7]
i8 1 x2[5]
i9 1 x1[2]
i10 1 x2[6]
i11 1 x1[1]
i12 1 x1[3]
i13 1 x1[5]
i14 1 x1[6]
i15 2 y2[6]
i16 1 x1[7]
i17 1 x1[4]
o0 bv[0]
c
simplified
  <=
    abs
      1 x2
    xor
      reverse
        1 x1
      >> 6
        2 y2
