words_hard_train/7427.qaiger.qdimacs
p cnf 105 262
a 32 2 68 6 7 9 11 43 13 15 17 83 21 53 58 28 0
e 1 3 4 5 8 10 12 14 16 18 19 20 22 23 24 25 26 27 29 30 31 33 34 35 36 37 38 39 40 41 42 44 45 46 47 48 49 50 51 52 54 55 56 57 59 60 61 62 63 64 65 66 67 69 70 71 72 73 74 75 76 77 78 79 80 81 82 84 85 86 87 88 89 90 91 92 93 94 95 96 97 98 99 100 101 102 103 104 105 0
-1 2 3 0
1 -3 0
-2 -3 0
1 -2 4 0
-1 -4 0
2 -4 0
3 4 5 0
-3 -5 0
-4 -5 0
6 7 8 0
-6 -8 0
-7 -8 0
-8 9 10 0
8 -10 0
-9 -10 0
-10 11 12 0
10 -12 0
-11 -12 0
-12 13 14 0
12 -14 0
-13 -14 0
14 15 16 0
-14 -16 0
-15 -16 0
16 17 18 0
-16 -18 0
-17 -18 0
-16 -17 19 0
16 -19 0
17 -19 0
18 19 20 0
-18 -20 0
-19 -20 0
-21 1 22 0
21 -22 0
-1 -22 0
21 -1 23 0
-21 -23 0
1 -23 0
22 23 24 0
-22 -24 0
-23 -24 0
-20 24 25 0
20 -25 0
-24 -25 0
-14 17 26 0
14 -26 0
-17 -26 0
26 15 27 0
-26 -27 0
-15 -27 0
27 -28 29 0
-27 -29 0
28 -29 0
-27 28 30 0
27 -30 0
-28 -30 0
29 30 31 0
-29 -31 0
-30 -31 0
-32 -1 33 0
32 -33 0
1 -33 0
32 1 34 0
-32 -34 0
-1 -34 0
33 34 35 0
-33 -35 0
-34 -35 0
31 -35 36 0
-31 -36 0
35 -36 0
25 36 37 0
-25 -37 0
-36 -37 0
20 -24 38 0
-20 -38 0
24 -38 0
12 15 39 0
-12 -39 0
-15 -39 0
39 13 40 0
-39 -40 0
-13 -40 0
-39 -13 41 0
39 -41 0
13 -41 0
40 41 42 0
-40 -42 0
-41 -42 0
-43 1 44 0
43 -44 0
-1 -44 0
43 -1 45 0
-43 -45 0
1 -45 0
44 45 46 0
-44 -46 0
-45 -46 0
42 -46 47 0
-42 -47 0
46 -47 0
38 47 48 0
-38 -48 0
-47 -48 0
8 15 49 0
-8 -49 0
-15 -49 0
49 9 50 0
-49 -50 0
-9 -50 0
-49 -9 51 0
49 -51 0
9 -51 0
50 51 52 0
-50 -52 0
-51 -52 0
-53 1 54 0
53 -54 0
-1 -54 0
53 -1 55 0
-53 -55 0
1 -55 0
54 55 56 0
-54 -56 0
-55 -56 0
52 -56 57 0
-52 -57 0
56 -57 0
58 1 59 0
-58 -59 0
-1 -59 0
-58 -1 60 0
58 -60 0
1 -60 0
59 60 61 0
-59 -61 0
-60 -61 0
-6 15 62 0
6 -62 0
-15 -62 0
62 7 63 0
-62 -63 0
-7 -63 0
-62 -7 64 0
62 -64 0
7 -64 0
63 64 65 0
-63 -65 0
-64 -65 0
-61 -65 66 0
61 -66 0
65 -66 0
-67 -68 69 0
67 -69 0
68 -69 0
67 68 70 0
-67 -70 0
-68 -70 0
69 70 71 0
-69 -71 0
-70 -71 0
-71 -6 72 0
71 -72 0
6 -72 0
66 72 73 0
-66 -73 0
-72 -73 0
61 65 74 0
-61 -74 0
-65 -74 0
73 74 75 0
-73 -75 0
-74 -75 0
-52 56 76 0
52 -76 0
-56 -76 0
75 76 77 0
-75 -77 0
-76 -77 0
57 77 78 0
-57 -78 0
-77 -78 0
10 15 79 0
-10 -79 0
-15 -79 0
79 11 80 0
-79 -80 0
-11 -80 0
-79 -11 81 0
79 -81 0
11 -81 0
80 81 82 0
-80 -82 0
-81 -82 0
-83 1 84 0
83 -84 0
-1 -84 0
83 -1 85 0
-83 -85 0
1 -85 0
84 85 86 0
-84 -86 0
-85 -86 0
82 -86 87 0
-82 -87 0
86 -87 0
-78 87 88 0
78 -88 0
-87 -88 0
-82 86 89 0
82 -89 0
-86 -89 0
88 89 90 0
-88 -90 0
-89 -90 0
-42 46 91 0
42 -91 0
-46 -91 0
-90 91 92 0
90 -92 0
-91 -92 0
-48 92 93 0
48 -93 0
-92 -93 0
-37 93 94 0
37 -94 0
-93 -94 0
-31 35 95 0
31 -95 0
-35 -95 0
94 95 96 0
-94 -96 0
-95 -96 0
-5 -96 97 0
5 -97 0
96 -97 0
-26 28 98 0
26 -98 0
-28 -98 0
-97 -98 99 0
97 -99 0
98 -99 0
-99 -15 100 0
99 -100 0
15 -100 0
5 96 101 0
-5 -101 0
-96 -101 0
-101 15 102 0
101 -102 0
-15 -102 0
97 98 103 0
-97 -103 0
-98 -103 0
102 103 104 0
-102 -104 0
-103 -104 0
100 -104 105 0
-100 -105 0
104 -105 0
105 0
